language ESSENCE' 1.0

letting jobs = 102
letting horizon = 837
letting resourcesRenew = 2
letting resourcesNonrenew = 2
letting resourceLimits = [50, 44, 434, 472]
letting successors = [[2, 3, 4, 5, 6, 7, 8, 9, 10, 11, 12, 13, 14, 15, 16, 19, 21, 26, 29], [49, 44, 43, 41, 38, 37, 34, 33, 32, 30, 28, 24, 23, 20], [54, 49, 44, 43, 41, 40, 39, 38, 37, 35, 33, 24, 22], [54, 52, 49, 44, 43, 41, 39, 37, 31, 22, 17], [49, 43, 42, 40, 38, 37, 34, 22, 18], [56, 54, 52, 49, 46, 44, 41, 37, 35, 32, 31, 22], [46, 43, 42, 41, 40, 39, 27, 18], [62, 54, 49, 44, 40, 35, 24, 22], [54, 52, 49, 46, 45, 43, 42, 37, 33, 28, 27], [54, 52, 46, 45, 43, 42, 34, 33, 32, 31], [62, 54, 52, 49, 46, 41, 37, 27, 25], [60, 58, 56, 54, 51, 50, 49, 48, 46, 44, 42, 41, 35, 33], [59, 58, 56, 54, 53, 52, 49, 47, 46, 45, 41, 36, 33], [69, 62, 60, 58, 57, 56, 54, 52, 47, 43, 35, 25], [62, 54, 53, 52, 51, 49, 47, 46, 45, 44, 41, 36], [76, 62, 53, 52, 51, 50, 49, 48, 46, 45, 41, 27], [58, 56, 51, 50, 46, 35, 34, 33], [69, 67, 62, 60, 58, 56, 54, 51, 50, 48, 47, 44, 35], [85, 76, 62, 60, 58, 53, 51, 50, 48, 47, 45, 44, 41], [57, 54, 53, 52, 46, 45, 27], [66, 62, 57, 56, 53, 52, 50, 48, 47, 43, 37], [70, 68, 65, 61, 59, 57, 53, 51, 47, 36], [69, 62, 59, 58, 57, 56, 55, 52, 35], [64, 57, 51, 46, 27], [85, 78, 76, 70, 67, 53, 51, 50, 45, 44], [85, 82, 74, 70, 69, 67, 66, 65, 64, 63, 62, 61, 60, 59, 55, 51], [85, 82, 80, 78, 69, 68, 67, 65, 63, 61, 60, 59, 58, 56, 47], [101, 85, 74, 67, 66, 61, 60, 58, 57, 53, 51, 50, 48], [101, 85, 84, 82, 76, 75, 74, 73, 67, 66, 65, 64, 63, 62, 61, 60, 58, 57], [75, 74, 69, 68, 67, 66, 64, 63, 62, 59, 58, 46], [82, 81, 76, 67, 66, 62, 59, 58, 53, 51, 47], [85, 74, 68, 61, 60, 59, 58, 53, 51, 50], [101, 95, 82, 76, 74, 70, 69, 68, 67, 66, 65, 64, 63, 62, 55], [85, 83, 82, 71, 67, 66, 61, 59, 57, 48, 47], [95, 85, 78, 76, 73, 70, 53, 45], [101, 85, 84, 76, 74, 72, 71, 67, 66, 60, 50, 48], [96, 95, 85, 83, 82, 80, 79, 75, 74, 73, 71, 70, 69, 67, 65, 63, 59], [95, 85, 82, 81, 78, 74, 66, 64, 61, 55, 51], [84, 82, 81, 78, 76, 74, 69, 66, 58, 56, 55], [100, 85, 82, 80, 77, 76, 75, 74, 73, 63, 53, 52], [101, 99, 98, 96, 95, 82, 74, 73, 72, 70, 69, 67, 61, 57], [101, 96, 95, 94, 83, 82, 81, 80, 77, 74, 71, 67, 55], [95, 94, 85, 83, 82, 80, 74, 64, 63, 61], [95, 81, 72, 71, 66, 61, 59, 55], [101, 97, 94, 82, 79, 74, 68, 66, 65, 63], [98, 96, 95, 94, 83, 82, 72, 71, 70, 65, 61], [101, 99, 96, 95, 84, 77, 74, 72, 55], [99, 95, 94, 81, 80, 78, 77, 55], [100, 98, 97, 96, 95, 91, 82, 80, 74, 71, 70, 69], [95, 82, 81, 80, 77, 55], [99, 98, 97, 94, 93, 88, 84, 83, 80, 77, 73, 72], [97, 95, 94, 91, 90, 79, 72, 64], [97, 91, 90, 89, 84, 83, 79, 64], [99, 98, 96, 95, 85, 84, 81, 79, 78, 77], [100, 98, 93, 92, 89, 79, 75, 73], [98, 96, 94, 92, 91, 89, 88, 87, 83, 71], [100, 97, 94, 92, 91, 90, 88, 87, 81, 80], [95, 91, 86, 79, 77, 70], [101, 100, 94, 91, 90, 89, 88, 87, 86, 84], [97, 95, 92, 91, 90, 88, 86, 77], [100, 97, 91, 90, 86, 79, 77], [99, 94, 93, 92, 88, 86, 78], [99, 98, 90, 88, 81, 72], [98, 96, 92, 87, 71], [100, 91, 90, 88, 77], [93, 92, 90, 88, 80], [97, 90, 88, 87, 86], [96, 92, 91, 88, 86], [88, 86, 77], [93, 92, 90, 89], [99, 93, 86], [89, 87, 86], [91, 90, 86], [90, 88, 87], [97, 88, 87], [96, 83], [89, 87], [91, 87], [88], [86], [89], [86], [86], [92], [86], [102], [102], [102], [102], [102], [102], [102], [102], [102], [102], [102], [102], [102], [102], [102], [102], []]
letting durations = [[0], [2, 9, 10], [3, 4, 8], [1, 4, 7], [4, 5, 6], [7, 8, 9], [2, 4, 8], [3, 6, 7], [1, 8, 10], [1, 3, 9], [2, 3, 8], [8, 9, 10], [2, 5, 7], [3, 6, 8], [1, 4, 10], [2, 6, 9], [3, 4, 8], [3, 4, 7], [6, 6, 7], [1, 6, 7], [1, 9, 10], [2, 7, 10], [5, 7, 10], [4, 6, 7], [1, 4, 8], [1, 3, 8], [4, 5, 7], [3, 7, 9], [8, 9, 10], [2, 7, 10], [7, 8, 9], [3, 4, 7], [2, 9, 10], [2, 5, 9], [7, 8, 10], [2, 7, 8], [2, 4, 7], [2, 4, 8], [1, 3, 10], [2, 7, 10], [1, 2, 5], [6, 7, 9], [1, 5, 10], [3, 4, 8], [6, 7, 8], [1, 2, 7], [1, 6, 7], [4, 7, 9], [1, 3, 10], [1, 9, 10], [7, 8, 9], [5, 6, 7], [1, 3, 6], [2, 6, 10], [3, 5, 6], [5, 6, 9], [1, 8, 10], [7, 9, 10], [1, 2, 8], [3, 4, 8], [2, 5, 9], [4, 5, 8], [3, 4, 9], [3, 6, 9], [4, 7, 9], [1, 7, 9], [2, 3, 4], [2, 6, 10], [3, 4, 5], [3, 9, 10], [6, 7, 10], [3, 5, 10], [2, 6, 9], [7, 8, 10], [1, 7, 8], [1, 2, 3], [1, 1, 2], [6, 8, 10], [4, 5, 8], [6, 7, 9], [1, 3, 9], [7, 9, 10], [3, 4, 10], [7, 8, 9], [3, 4, 10], [1, 3, 5], [2, 3, 9], [1, 2, 5], [1, 3, 6], [3, 6, 10], [2, 4, 8], [2, 3, 10], [2, 8, 10], [5, 7, 8], [1, 7, 9], [5, 6, 7], [4, 9, 10], [5, 6, 8], [1, 9, 10], [2, 7, 9], [3, 5, 6], [0]]
letting resourceUsage = [[[0, 0, 0, 0]], [[4, 3, 6, 7], [2, 3, 4, 6], [1, 3, 3, 5]], [[4, 3, 7, 2], [4, 2, 6, 1], [4, 2, 5, 1]], [[5, 4, 2, 2], [4, 3, 1, 2], [3, 3, 1, 2]], [[5, 2, 8, 8], [2, 2, 7, 6], [1, 2, 3, 6]], [[3, 1, 7, 4], [2, 1, 5, 2], [1, 1, 5, 1]], [[5, 4, 5, 7], [4, 4, 3, 5], [4, 3, 3, 4]], [[4, 1, 4, 9], [3, 1, 3, 7], [3, 1, 2, 7]], [[3, 2, 9, 6], [3, 1, 6, 6], [2, 1, 4, 3]], [[4, 3, 6, 7], [4, 3, 4, 6], [3, 2, 3, 5]], [[5, 4, 4, 7], [4, 4, 2, 6], [2, 4, 2, 5]], [[2, 4, 4, 8], [2, 4, 3, 6], [2, 2, 3, 5]], [[5, 4, 9, 3], [5, 3, 6, 3], [5, 2, 2, 3]], [[3, 2, 7, 8], [2, 1, 6, 4], [1, 1, 5, 2]], [[4, 2, 4, 1], [3, 2, 3, 2], [3, 2, 3, 1]], [[2, 2, 5, 4], [2, 1, 2, 3], [2, 1, 1, 3]], [[3, 4, 7, 7], [3, 3, 5, 5], [3, 2, 3, 1]], [[5, 2, 7, 10], [3, 2, 6, 7], [1, 1, 5, 5]], [[1, 4, 8, 3], [1, 2, 7, 4], [1, 2, 7, 3]], [[3, 5, 7, 1], [3, 4, 7, 1], [3, 3, 6, 1]], [[1, 5, 6, 3], [1, 3, 5, 2], [1, 3, 5, 1]], [[4, 5, 8, 9], [4, 4, 4, 7], [4, 4, 2, 7]], [[5, 5, 8, 5], [5, 4, 4, 5], [5, 4, 3, 5]], [[3, 3, 7, 8], [2, 2, 7, 8], [1, 1, 7, 8]], [[3, 3, 8, 3], [3, 1, 5, 3], [3, 1, 3, 1]], [[4, 1, 4, 8], [4, 1, 4, 6], [4, 1, 4, 5]], [[3, 4, 7, 7], [3, 3, 6, 3], [2, 3, 6, 1]], [[4, 1, 4, 8], [2, 1, 4, 4], [1, 1, 1, 2]], [[2, 2, 7, 7], [2, 2, 5, 3], [2, 2, 4, 1]], [[4, 4, 6, 7], [3, 3, 3, 4], [2, 3, 2, 4]], [[4, 3, 4, 9], [4, 3, 3, 8], [3, 3, 3, 7]], [[2, 4, 6, 7], [2, 3, 6, 7], [2, 3, 6, 6]], [[3, 3, 7, 8], [2, 3, 6, 7], [2, 3, 4, 7]], [[3, 4, 4, 5], [3, 2, 3, 2], [3, 2, 3, 1]], [[5, 4, 7, 8], [4, 4, 5, 8], [4, 4, 3, 8]], [[5, 4, 7, 4], [5, 4, 4, 3], [5, 3, 3, 3]], [[3, 3, 8, 7], [3, 2, 4, 5], [3, 2, 2, 5]], [[5, 2, 5, 8], [5, 2, 4, 8], [5, 2, 3, 6]], [[3, 4, 5, 10], [3, 2, 5, 9], [1, 1, 3, 9]], [[1, 3, 10, 8], [1, 2, 7, 7], [1, 2, 7, 6]], [[4, 3, 7, 3], [3, 2, 3, 2], [2, 2, 1, 2]], [[4, 4, 4, 6], [4, 3, 4, 5], [3, 2, 4, 3]], [[3, 4, 7, 4], [3, 4, 4, 2], [3, 2, 2, 2]], [[3, 2, 4, 8], [2, 2, 3, 7], [2, 2, 2, 6]], [[2, 2, 4, 7], [1, 1, 4, 7], [1, 1, 4, 6]], [[4, 4, 8, 5], [4, 3, 7, 5], [4, 2, 7, 5]], [[5, 3, 8, 6], [5, 2, 5, 2], [5, 2, 5, 1]], [[2, 2, 8, 7], [2, 2, 5, 3], [1, 2, 4, 3]], [[1, 5, 7, 4], [1, 4, 6, 3], [1, 4, 4, 3]], [[5, 5, 9, 9], [4, 4, 8, 9], [4, 4, 8, 8]], [[2, 3, 4, 8], [1, 3, 3, 6], [1, 2, 3, 5]], [[5, 5, 8, 5], [4, 2, 5, 3], [4, 1, 4, 3]], [[2, 4, 9, 7], [2, 3, 6, 5], [2, 3, 5, 4]], [[2, 4, 6, 8], [2, 3, 6, 8], [2, 3, 6, 6]], [[5, 1, 5, 4], [4, 1, 5, 3], [3, 1, 4, 3]], [[3, 2, 6, 9], [3, 1, 3, 5], [3, 1, 1, 4]], [[5, 3, 9, 8], [5, 3, 7, 6], [5, 2, 7, 6]], [[2, 3, 5, 9], [1, 3, 3, 6], [1, 2, 1, 1]], [[2, 1, 1, 8], [2, 1, 1, 7], [2, 1, 1, 5]], [[4, 4, 4, 8], [4, 3, 2, 8], [2, 3, 2, 8]], [[1, 2, 5, 8], [1, 2, 4, 4], [1, 2, 4, 2]], [[3, 3, 9, 9], [2, 2, 7, 6], [2, 1, 3, 4]], [[3, 4, 5, 7], [3, 4, 4, 7], [3, 4, 4, 4]], [[2, 5, 7, 10], [2, 3, 3, 9], [2, 2, 3, 9]], [[3, 4, 8, 9], [3, 2, 6, 7], [3, 2, 6, 2]], [[4, 3, 5, 10], [3, 1, 3, 8], [1, 1, 3, 8]], [[5, 3, 5, 4], [4, 3, 2, 3], [4, 3, 1, 3]], [[3, 5, 8, 2], [2, 4, 7, 2], [1, 4, 7, 2]], [[2, 5, 10, 5], [1, 5, 10, 5], [1, 5, 10, 4]], [[5, 4, 4, 5], [5, 2, 3, 5], [5, 1, 2, 4]], [[3, 5, 7, 5], [2, 4, 5, 4], [2, 3, 3, 3]], [[2, 4, 8, 6], [2, 4, 7, 6], [2, 3, 7, 6]], [[4, 3, 2, 6], [4, 2, 1, 5], [3, 2, 1, 5]], [[5, 4, 8, 4], [5, 3, 6, 4], [5, 2, 4, 1]], [[3, 2, 4, 8], [3, 1, 4, 6], [3, 1, 3, 3]], [[4, 1, 7, 10], [4, 1, 7, 9], [3, 1, 4, 8]], [[4, 5, 2, 3], [3, 4, 2, 4], [3, 4, 2, 3]], [[5, 3, 1, 10], [5, 1, 1, 7], [5, 1, 1, 6]], [[5, 4, 8, 6], [3, 4, 5, 3], [2, 4, 5, 3]], [[2, 4, 7, 1], [2, 4, 4, 1], [2, 4, 3, 1]], [[3, 5, 9, 6], [3, 4, 6, 4], [2, 4, 4, 4]], [[4, 3, 4, 9], [3, 3, 3, 8], [1, 3, 3, 8]], [[4, 2, 10, 3], [4, 2, 6, 1], [4, 2, 2, 1]], [[2, 3, 2, 7], [2, 2, 1, 6], [2, 1, 1, 6]], [[3, 4, 10, 9], [3, 3, 9, 9], [3, 2, 9, 9]], [[1, 4, 7, 4], [1, 3, 6, 4], [1, 2, 5, 4]], [[1, 4, 8, 6], [1, 4, 6, 5], [1, 4, 4, 5]], [[4, 3, 7, 8], [3, 2, 7, 7], [2, 2, 6, 7]], [[2, 5, 3, 4], [2, 3, 2, 2], [1, 1, 2, 2]], [[3, 3, 8, 2], [2, 3, 7, 1], [2, 3, 4, 1]], [[3, 1, 3, 8], [2, 1, 2, 8], [2, 1, 2, 7]], [[4, 4, 6, 4], [4, 3, 4, 4], [4, 2, 1, 4]], [[2, 4, 4, 7], [1, 4, 3, 6], [1, 4, 3, 3]], [[5, 4, 6, 7], [4, 2, 4, 7], [4, 2, 3, 3]], [[2, 3, 6, 7], [2, 2, 4, 5], [1, 2, 4, 4]], [[3, 4, 8, 4], [3, 3, 8, 4], [2, 3, 7, 3]], [[1, 1, 10, 3], [1, 1, 7, 2], [1, 1, 7, 1]], [[4, 3, 4, 7], [3, 2, 3, 6], [3, 2, 2, 6]], [[5, 2, 4, 8], [5, 2, 2, 8], [5, 1, 1, 8]], [[4, 2, 8, 8], [4, 2, 6, 7], [2, 2, 2, 7]], [[3, 3, 9, 3], [2, 3, 9, 2], [2, 3, 9, 1]], [[0, 0, 0, 0]]]
